20221024_PCST_ILP/Steiner1_dir_FC3_PtoC1_evid0.7_maxSt2_30_35.sol
# Objective value = -1.5991194404159989e+01
x_Akl1_Apm4 1
x_Apm4_Apl1 1
x_Apl1_Chc1 1
x_Apm4_Apl2 1
x_Apl2_Chc1 1
x_Apm4_Apl3 1
x_Apl3_Sec16 1
x_Apm4_Sec16 0
x_Sec18_Rpn1 0
x_Rpn1_Rps31 0
x_Rps31_Sla1 1
x_Rpn1_Ubi4 0
x_Ubi4_Sla1 0
x_Sec18_Rpn10 0
x_Rpn10_Rps31 0
x_Rpn10_Rsp5 0
x_Rsp5_Art5 1
x_Rsp5_Ecm21 1
x_Rsp5_Ldb19 1
x_Rpn10_Ubi4 0
x_Sec18_Rpn11 0
x_Rpn11_Rps31 0
x_Rpn11_Ubi4 0
x_Sec18_Sec17 0
x_Sec17_Sar1 0
x_Sar1_Sec16 0
x_Sec18_Sly1 1
x_Sly1_Sec23 1
x_Sec23_Sec16 1
x_Ssn2_Med6 0
x_Med6_Rpb10 0
x_Rpb10_Bdp1 0
x_Med6_Rpb5 0
x_Rpb5_Bdp1 0
x_Med6_Rpb8 0
x_Rpb8_Bdp1 0
x_Med6_Rpc10 0
x_Rpc10_Bdp1 0
x_Med6_Rpo26 0
x_Rpo26_Bdp1 0
x_Med6_Spt15 0
x_Spt15_Bdp1 1
x_Ssn2_Med7 0
x_Med7_Rpb10 0
x_Med7_Rpb5 0
x_Med7_Rpb8 0
x_Med7_Rpc10 0
x_Med7_Rpo26 0
x_Med7_Spt15 0
x_Ssn2_Rgr1 1
x_Rgr1_Rpb10 0
x_Rgr1_Rpb5 0
x_Rgr1_Rpb8 0
x_Rgr1_Rpc10 0
x_Rgr1_Rpo26 0
x_Rgr1_Spt15 1
x_Ssn2_Rox3 0
x_Rox3_Rpb10 0
x_Rox3_Rpb5 0
x_Rox3_Rpb8 0
x_Rox3_Rpc10 0
x_Rox3_Rpo26 0
x_Rox3_Spt15 0
x_Ssn2_Soh1 0
x_Soh1_Rpb10 0
x_Soh1_Rpb5 0
x_Soh1_Rpb8 0
x_Soh1_Rpc10 0
x_Soh1_Rpo26 0
x_Soh1_Spt15 0
x_Ssn2_Srb4 0
x_Srb4_Rpb10 0
x_Srb4_Rpb5 0
x_Srb4_Rpb8 0
x_Srb4_Rpc10 0
x_Srb4_Rpo26 0
x_Srb4_Spt15 0
x_Ssn2_Srb5 0
x_Srb5_Rpb10 0
x_Srb5_Rpb5 0
x_Srb5_Rpb8 0
x_Srb5_Rpc10 0
x_Srb5_Rpo26 0
x_Srb5_Spt15 0
x_Ssn2_Srb6 0
x_Srb6_Rpb10 0
x_Srb6_Rpb5 0
x_Srb6_Rpb8 0
x_Srb6_Rpc10 0
x_Srb6_Rpo26 0
x_Srb6_Spt15 0
x_Ssn2_Srb7 0
x_Srb7_Rpb10 0
x_Srb7_Rpb5 0
x_Srb7_Rpb8 0
x_Srb7_Rpc10 0
x_Srb7_Rpo26 0
x_Srb7_Spt15 0
x_Yhr131c_Rsp5 1
x_Rsp5_Rps31 1
x_Rsp5_Rvs167 0
x_Rvs167_Sla1 0
x_Rsp5_Ubi4 0
y_Akl1 1
y_Apm4 1
y_Apl1 1
y_Apl2 1
y_Apl3 1
y_Sec18 1
y_Rpn1 0
y_Rps31 1
y_Ubi4 0
y_Rpn10 0
y_Rsp5 1
y_Rpn11 0
y_Sec17 0
y_Sar1 0
y_Sly1 1
y_Sec23 1
y_Ssn2 1
y_Med6 0
y_Rpb10 0
y_Rpb5 0
y_Rpb8 0
y_Rpc10 0
y_Rpo26 0
y_Spt15 1
y_Med7 0
y_Rgr1 1
y_Rox3 0
y_Soh1 0
y_Srb4 0
y_Srb5 0
y_Srb6 0
y_Srb7 0
y_Yhr131c 1
y_Rvs167 0
y_Chc1 1
y_Sec16 1
y_Sla1 1
y_Art5 1
y_Ecm21 1
y_Ldb19 1
y_Bdp1 1
